13239
1 0 1 0 0 1 0 0 1 0 0 1 0 0 1 1 0 1 0 1 1 0 0 0 1 1 0 0 1 1 
20 25 20 2 20 5 19 24 19 17 24 20 8 20 17 14 14 17 5 11 19 0 24 0 24 8 19 24 24 24 29 25 20 25 20 20 24 15 17 14 0 14 15 20 24 14 17 20 0 8 0 14 14 5 20 20 2 0 0 14 0 5 20 0 11 11 24 0 0 24 20 20 11 17 24 8 24 20 19 24 20 0 20 11 19 11 17 0 20 29 2 24 0 0 17 24 2 0 29 20 20 0 14 25 19 29 0 0 14 28 14 19 2 11 11 0 24 24 24 24 5 20 25 20 20 0 5 24 0 25 0 0 24 5 8 14 0 5 20 17 0 8 20 14 8 0 25 5 2 5 